(set-logic QF_LRA)
(declare-fun T1 () Real )
(declare-fun T2 () Real )
(declare-fun T3 () Real )
(declare-fun T4 () Real )
(declare-fun T5 () Real )
(declare-fun T6 () Real )
(declare-fun T7 () Real )
(declare-fun T8 () Real )
(declare-fun T9 () Real )
(declare-fun T10 () Real )
(declare-fun Z () Real )
(declare-fun k () Real )
(assert (let
(( $goal (>= Z k) ))
(let
((
$phi ( and 
(or ( <= ( + T1 17 ) T2 ) ( <= ( + T2 22 ) T1 ) )
(or ( <= ( + T1 22 )  ( + T2 22 ) ) ( <= ( + T2 51 )( + T1 17 ) ) )
(or ( <= ( + T1 79 )  ( + T2 51 ) ) ( <= ( + T2 82 )( + T1 22 ) ) )
(or ( <= ( + T1 106 )  ( + T2 82 ) ) ( <= ( + T2 171 )( + T1 79 ) ) )
(or ( <= ( + T1 159 )  ( + T2 171 ) ) ( <= ( + T2 216 )( + T1 106 ) ) )
(or ( <= ( + T1 231 )  ( + T2 216 ) ) ( <= ( + T2 241 )( + T1 159 ) ) )
(or ( <= ( + T1 289 )  ( + T2 241 ) ) ( <= ( + T2 340 )( + T1 231 ) ) )
(or ( <= ( + T1 290 )  ( + T2 340 ) ) ( <= ( + T2 396 )( + T1 289 ) ) )
(or ( <= ( + T1 17 ) T3 ) ( <= ( + T3 78 ) T1 ) )
(or ( <= ( + T1 22 )  ( + T3 78 ) ) ( <= ( + T3 95 )( + T1 17 ) ) )
(or ( <= ( + T1 79 )  ( + T3 95 ) ) ( <= ( + T3 103 )( + T1 22 ) ) )
(or ( <= ( + T1 106 )  ( + T3 103 ) ) ( <= ( + T3 150 )( + T1 79 ) ) )
(or ( <= ( + T1 159 )  ( + T3 150 ) ) ( <= ( + T3 200 )( + T1 106 ) ) )
(or ( <= ( + T1 231 )  ( + T3 200 ) ) ( <= ( + T3 300 )( + T1 159 ) ) )
(or ( <= ( + T1 289 )  ( + T3 300 ) ) ( <= ( + T3 351 )( + T1 231 ) ) )
(or ( <= ( + T1 290 )  ( + T3 351 ) ) ( <= ( + T3 418 )( + T1 289 ) ) )
(or ( <= ( + T1 17 ) T4 ) ( <= ( + T4 71 ) T1 ) )
(or ( <= ( + T1 22 )  ( + T4 71 ) ) ( <= ( + T4 165 )( + T1 17 ) ) )
(or ( <= ( + T1 79 )  ( + T4 165 ) ) ( <= ( + T4 236 )( + T1 22 ) ) )
(or ( <= ( + T1 106 )  ( + T4 236 ) ) ( <= ( + T4 255 )( + T1 79 ) ) )
(or ( <= ( + T1 159 )  ( + T4 255 ) ) ( <= ( + T4 313 )( + T1 106 ) ) )
(or ( <= ( + T1 231 )  ( + T4 313 ) ) ( <= ( + T4 404 )( + T1 159 ) ) )
(or ( <= ( + T1 289 )  ( + T4 404 ) ) ( <= ( + T4 445 )( + T1 231 ) ) )
(or ( <= ( + T1 290 )  ( + T4 445 ) ) ( <= ( + T4 472 )( + T1 289 ) ) )
(or ( <= ( + T1 17 ) T5 ) ( <= ( + T5 95 ) T1 ) )
(or ( <= ( + T1 22 )  ( + T5 95 ) ) ( <= ( + T5 144 )( + T1 17 ) ) )
(or ( <= ( + T1 79 )  ( + T5 144 ) ) ( <= ( + T5 197 )( + T1 22 ) ) )
(or ( <= ( + T1 106 )  ( + T5 197 ) ) ( <= ( + T5 244 )( + T1 79 ) ) )
(or ( <= ( + T1 159 )  ( + T5 244 ) ) ( <= ( + T5 317 )( + T1 106 ) ) )
(or ( <= ( + T1 231 )  ( + T5 317 ) ) ( <= ( + T5 379 )( + T1 159 ) ) )
(or ( <= ( + T1 289 )  ( + T5 379 ) ) ( <= ( + T5 478 )( + T1 231 ) ) )
(or ( <= ( + T1 290 )  ( + T5 478 ) ) ( <= ( + T5 572 )( + T1 289 ) ) )
(or ( <= ( + T1 17 ) T6 ) ( <= ( + T6 42 ) T1 ) )
(or ( <= ( + T1 22 )  ( + T6 42 ) ) ( <= ( + T6 124 )( + T1 17 ) ) )
(or ( <= ( + T1 79 )  ( + T6 124 ) ) ( <= ( + T6 158 )( + T1 22 ) ) )
(or ( <= ( + T1 106 )  ( + T6 158 ) ) ( <= ( + T6 245 )( + T1 79 ) ) )
(or ( <= ( + T1 159 )  ( + T6 245 ) ) ( <= ( + T6 303 )( + T1 106 ) ) )
(or ( <= ( + T1 231 )  ( + T6 303 ) ) ( <= ( + T6 387 )( + T1 159 ) ) )
(or ( <= ( + T1 289 )  ( + T6 387 ) ) ( <= ( + T6 481 )( + T1 231 ) ) )
(or ( <= ( + T1 290 )  ( + T6 481 ) ) ( <= ( + T6 516 )( + T1 289 ) ) )
(or ( <= ( + T1 17 ) T7 ) ( <= ( + T7 100 ) T1 ) )
(or ( <= ( + T1 22 )  ( + T7 100 ) ) ( <= ( + T7 101 )( + T1 17 ) ) )
(or ( <= ( + T1 79 )  ( + T7 101 ) ) ( <= ( + T7 182 )( + T1 22 ) ) )
(or ( <= ( + T1 106 )  ( + T7 182 ) ) ( <= ( + T7 183 )( + T1 79 ) ) )
(or ( <= ( + T1 159 )  ( + T7 183 ) ) ( <= ( + T7 184 )( + T1 106 ) ) )
(or ( <= ( + T1 231 )  ( + T7 184 ) ) ( <= ( + T7 268 )( + T1 159 ) ) )
(or ( <= ( + T1 289 )  ( + T7 268 ) ) ( <= ( + T7 335 )( + T1 231 ) ) )
(or ( <= ( + T1 290 )  ( + T7 335 ) ) ( <= ( + T7 358 )( + T1 289 ) ) )
(or ( <= ( + T1 17 ) T8 ) ( <= ( + T8 77 ) T1 ) )
(or ( <= ( + T1 22 )  ( + T8 77 ) ) ( <= ( + T8 166 )( + T1 17 ) ) )
(or ( <= ( + T1 79 )  ( + T8 166 ) ) ( <= ( + T8 259 )( + T1 22 ) ) )
(or ( <= ( + T1 106 )  ( + T8 259 ) ) ( <= ( + T8 294 )( + T1 79 ) ) )
(or ( <= ( + T1 159 )  ( + T8 294 ) ) ( <= ( + T8 373 )( + T1 106 ) ) )
(or ( <= ( + T1 231 )  ( + T8 373 ) ) ( <= ( + T8 458 )( + T1 159 ) ) )
(or ( <= ( + T1 289 )  ( + T8 458 ) ) ( <= ( + T8 471 )( + T1 231 ) ) )
(or ( <= ( + T1 290 )  ( + T8 471 ) ) ( <= ( + T8 544 )( + T1 289 ) ) )
(or ( <= ( + T1 17 ) T9 ) ( <= ( + T9 34 ) T1 ) )
(or ( <= ( + T1 22 )  ( + T9 34 ) ) ( <= ( + T9 99 )( + T1 17 ) ) )
(or ( <= ( + T1 79 )  ( + T9 99 ) ) ( <= ( + T9 171 )( + T1 22 ) ) )
(or ( <= ( + T1 106 )  ( + T9 171 ) ) ( <= ( + T9 177 )( + T1 79 ) ) )
(or ( <= ( + T1 159 )  ( + T9 177 ) ) ( <= ( + T9 255 )( + T1 106 ) ) )
(or ( <= ( + T1 231 )  ( + T9 255 ) ) ( <= ( + T9 277 )( + T1 159 ) ) )
(or ( <= ( + T1 289 )  ( + T9 277 ) ) ( <= ( + T9 328 )( + T1 231 ) ) )
(or ( <= ( + T1 290 )  ( + T9 328 ) ) ( <= ( + T9 347 )( + T1 289 ) ) )
(or ( <= ( + T1 17 ) T10 ) ( <= ( + T10 55 ) T1 ) )
(or ( <= ( + T1 22 )  ( + T10 55 ) ) ( <= ( + T10 91 )( + T1 17 ) ) )
(or ( <= ( + T1 79 )  ( + T10 91 ) ) ( <= ( + T10 148 )( + T1 22 ) ) )
(or ( <= ( + T1 106 )  ( + T10 148 ) ) ( <= ( + T10 161 )( + T1 79 ) ) )
(or ( <= ( + T1 159 )  ( + T10 161 ) ) ( <= ( + T10 232 )( + T1 106 ) ) )
(or ( <= ( + T1 231 )  ( + T10 232 ) ) ( <= ( + T10 282 )( + T1 159 ) ) )
(or ( <= ( + T1 289 )  ( + T10 282 ) ) ( <= ( + T10 329 )( + T1 231 ) ) )
(or ( <= ( + T1 290 )  ( + T10 329 ) ) ( <= ( + T10 399 )( + T1 289 ) ) )
(or ( <= ( + T2 22 ) T3 ) ( <= ( + T3 78 ) T2 ) )
(or ( <= ( + T2 51 )  ( + T3 78 ) ) ( <= ( + T3 95 )( + T2 22 ) ) )
(or ( <= ( + T2 82 )  ( + T3 95 ) ) ( <= ( + T3 103 )( + T2 51 ) ) )
(or ( <= ( + T2 171 )  ( + T3 103 ) ) ( <= ( + T3 150 )( + T2 82 ) ) )
(or ( <= ( + T2 216 )  ( + T3 150 ) ) ( <= ( + T3 200 )( + T2 171 ) ) )
(or ( <= ( + T2 241 )  ( + T3 200 ) ) ( <= ( + T3 300 )( + T2 216 ) ) )
(or ( <= ( + T2 340 )  ( + T3 300 ) ) ( <= ( + T3 351 )( + T2 241 ) ) )
(or ( <= ( + T2 396 )  ( + T3 351 ) ) ( <= ( + T3 418 )( + T2 340 ) ) )
(or ( <= ( + T2 22 ) T4 ) ( <= ( + T4 71 ) T2 ) )
(or ( <= ( + T2 51 )  ( + T4 71 ) ) ( <= ( + T4 165 )( + T2 22 ) ) )
(or ( <= ( + T2 82 )  ( + T4 165 ) ) ( <= ( + T4 236 )( + T2 51 ) ) )
(or ( <= ( + T2 171 )  ( + T4 236 ) ) ( <= ( + T4 255 )( + T2 82 ) ) )
(or ( <= ( + T2 216 )  ( + T4 255 ) ) ( <= ( + T4 313 )( + T2 171 ) ) )
(or ( <= ( + T2 241 )  ( + T4 313 ) ) ( <= ( + T4 404 )( + T2 216 ) ) )
(or ( <= ( + T2 340 )  ( + T4 404 ) ) ( <= ( + T4 445 )( + T2 241 ) ) )
(or ( <= ( + T2 396 )  ( + T4 445 ) ) ( <= ( + T4 472 )( + T2 340 ) ) )
(or ( <= ( + T2 22 ) T5 ) ( <= ( + T5 95 ) T2 ) )
(or ( <= ( + T2 51 )  ( + T5 95 ) ) ( <= ( + T5 144 )( + T2 22 ) ) )
(or ( <= ( + T2 82 )  ( + T5 144 ) ) ( <= ( + T5 197 )( + T2 51 ) ) )
(or ( <= ( + T2 171 )  ( + T5 197 ) ) ( <= ( + T5 244 )( + T2 82 ) ) )
(or ( <= ( + T2 216 )  ( + T5 244 ) ) ( <= ( + T5 317 )( + T2 171 ) ) )
(or ( <= ( + T2 241 )  ( + T5 317 ) ) ( <= ( + T5 379 )( + T2 216 ) ) )
(or ( <= ( + T2 340 )  ( + T5 379 ) ) ( <= ( + T5 478 )( + T2 241 ) ) )
(or ( <= ( + T2 396 )  ( + T5 478 ) ) ( <= ( + T5 572 )( + T2 340 ) ) )
(or ( <= ( + T2 22 ) T6 ) ( <= ( + T6 42 ) T2 ) )
(or ( <= ( + T2 51 )  ( + T6 42 ) ) ( <= ( + T6 124 )( + T2 22 ) ) )
(or ( <= ( + T2 82 )  ( + T6 124 ) ) ( <= ( + T6 158 )( + T2 51 ) ) )
(or ( <= ( + T2 171 )  ( + T6 158 ) ) ( <= ( + T6 245 )( + T2 82 ) ) )
(or ( <= ( + T2 216 )  ( + T6 245 ) ) ( <= ( + T6 303 )( + T2 171 ) ) )
(or ( <= ( + T2 241 )  ( + T6 303 ) ) ( <= ( + T6 387 )( + T2 216 ) ) )
(or ( <= ( + T2 340 )  ( + T6 387 ) ) ( <= ( + T6 481 )( + T2 241 ) ) )
(or ( <= ( + T2 396 )  ( + T6 481 ) ) ( <= ( + T6 516 )( + T2 340 ) ) )
(or ( <= ( + T2 22 ) T7 ) ( <= ( + T7 100 ) T2 ) )
(or ( <= ( + T2 51 )  ( + T7 100 ) ) ( <= ( + T7 101 )( + T2 22 ) ) )
(or ( <= ( + T2 82 )  ( + T7 101 ) ) ( <= ( + T7 182 )( + T2 51 ) ) )
(or ( <= ( + T2 171 )  ( + T7 182 ) ) ( <= ( + T7 183 )( + T2 82 ) ) )
(or ( <= ( + T2 216 )  ( + T7 183 ) ) ( <= ( + T7 184 )( + T2 171 ) ) )
(or ( <= ( + T2 241 )  ( + T7 184 ) ) ( <= ( + T7 268 )( + T2 216 ) ) )
(or ( <= ( + T2 340 )  ( + T7 268 ) ) ( <= ( + T7 335 )( + T2 241 ) ) )
(or ( <= ( + T2 396 )  ( + T7 335 ) ) ( <= ( + T7 358 )( + T2 340 ) ) )
(or ( <= ( + T2 22 ) T8 ) ( <= ( + T8 77 ) T2 ) )
(or ( <= ( + T2 51 )  ( + T8 77 ) ) ( <= ( + T8 166 )( + T2 22 ) ) )
(or ( <= ( + T2 82 )  ( + T8 166 ) ) ( <= ( + T8 259 )( + T2 51 ) ) )
(or ( <= ( + T2 171 )  ( + T8 259 ) ) ( <= ( + T8 294 )( + T2 82 ) ) )
(or ( <= ( + T2 216 )  ( + T8 294 ) ) ( <= ( + T8 373 )( + T2 171 ) ) )
(or ( <= ( + T2 241 )  ( + T8 373 ) ) ( <= ( + T8 458 )( + T2 216 ) ) )
(or ( <= ( + T2 340 )  ( + T8 458 ) ) ( <= ( + T8 471 )( + T2 241 ) ) )
(or ( <= ( + T2 396 )  ( + T8 471 ) ) ( <= ( + T8 544 )( + T2 340 ) ) )
(or ( <= ( + T2 22 ) T9 ) ( <= ( + T9 34 ) T2 ) )
(or ( <= ( + T2 51 )  ( + T9 34 ) ) ( <= ( + T9 99 )( + T2 22 ) ) )
(or ( <= ( + T2 82 )  ( + T9 99 ) ) ( <= ( + T9 171 )( + T2 51 ) ) )
(or ( <= ( + T2 171 )  ( + T9 171 ) ) ( <= ( + T9 177 )( + T2 82 ) ) )
(or ( <= ( + T2 216 )  ( + T9 177 ) ) ( <= ( + T9 255 )( + T2 171 ) ) )
(or ( <= ( + T2 241 )  ( + T9 255 ) ) ( <= ( + T9 277 )( + T2 216 ) ) )
(or ( <= ( + T2 340 )  ( + T9 277 ) ) ( <= ( + T9 328 )( + T2 241 ) ) )
(or ( <= ( + T2 396 )  ( + T9 328 ) ) ( <= ( + T9 347 )( + T2 340 ) ) )
(or ( <= ( + T2 22 ) T10 ) ( <= ( + T10 55 ) T2 ) )
(or ( <= ( + T2 51 )  ( + T10 55 ) ) ( <= ( + T10 91 )( + T2 22 ) ) )
(or ( <= ( + T2 82 )  ( + T10 91 ) ) ( <= ( + T10 148 )( + T2 51 ) ) )
(or ( <= ( + T2 171 )  ( + T10 148 ) ) ( <= ( + T10 161 )( + T2 82 ) ) )
(or ( <= ( + T2 216 )  ( + T10 161 ) ) ( <= ( + T10 232 )( + T2 171 ) ) )
(or ( <= ( + T2 241 )  ( + T10 232 ) ) ( <= ( + T10 282 )( + T2 216 ) ) )
(or ( <= ( + T2 340 )  ( + T10 282 ) ) ( <= ( + T10 329 )( + T2 241 ) ) )
(or ( <= ( + T2 396 )  ( + T10 329 ) ) ( <= ( + T10 399 )( + T2 340 ) ) )
(or ( <= ( + T3 78 ) T4 ) ( <= ( + T4 71 ) T3 ) )
(or ( <= ( + T3 95 )  ( + T4 71 ) ) ( <= ( + T4 165 )( + T3 78 ) ) )
(or ( <= ( + T3 103 )  ( + T4 165 ) ) ( <= ( + T4 236 )( + T3 95 ) ) )
(or ( <= ( + T3 150 )  ( + T4 236 ) ) ( <= ( + T4 255 )( + T3 103 ) ) )
(or ( <= ( + T3 200 )  ( + T4 255 ) ) ( <= ( + T4 313 )( + T3 150 ) ) )
(or ( <= ( + T3 300 )  ( + T4 313 ) ) ( <= ( + T4 404 )( + T3 200 ) ) )
(or ( <= ( + T3 351 )  ( + T4 404 ) ) ( <= ( + T4 445 )( + T3 300 ) ) )
(or ( <= ( + T3 418 )  ( + T4 445 ) ) ( <= ( + T4 472 )( + T3 351 ) ) )
(or ( <= ( + T3 78 ) T5 ) ( <= ( + T5 95 ) T3 ) )
(or ( <= ( + T3 95 )  ( + T5 95 ) ) ( <= ( + T5 144 )( + T3 78 ) ) )
(or ( <= ( + T3 103 )  ( + T5 144 ) ) ( <= ( + T5 197 )( + T3 95 ) ) )
(or ( <= ( + T3 150 )  ( + T5 197 ) ) ( <= ( + T5 244 )( + T3 103 ) ) )
(or ( <= ( + T3 200 )  ( + T5 244 ) ) ( <= ( + T5 317 )( + T3 150 ) ) )
(or ( <= ( + T3 300 )  ( + T5 317 ) ) ( <= ( + T5 379 )( + T3 200 ) ) )
(or ( <= ( + T3 351 )  ( + T5 379 ) ) ( <= ( + T5 478 )( + T3 300 ) ) )
(or ( <= ( + T3 418 )  ( + T5 478 ) ) ( <= ( + T5 572 )( + T3 351 ) ) )
(or ( <= ( + T3 78 ) T6 ) ( <= ( + T6 42 ) T3 ) )
(or ( <= ( + T3 95 )  ( + T6 42 ) ) ( <= ( + T6 124 )( + T3 78 ) ) )
(or ( <= ( + T3 103 )  ( + T6 124 ) ) ( <= ( + T6 158 )( + T3 95 ) ) )
(or ( <= ( + T3 150 )  ( + T6 158 ) ) ( <= ( + T6 245 )( + T3 103 ) ) )
(or ( <= ( + T3 200 )  ( + T6 245 ) ) ( <= ( + T6 303 )( + T3 150 ) ) )
(or ( <= ( + T3 300 )  ( + T6 303 ) ) ( <= ( + T6 387 )( + T3 200 ) ) )
(or ( <= ( + T3 351 )  ( + T6 387 ) ) ( <= ( + T6 481 )( + T3 300 ) ) )
(or ( <= ( + T3 418 )  ( + T6 481 ) ) ( <= ( + T6 516 )( + T3 351 ) ) )
(or ( <= ( + T3 78 ) T7 ) ( <= ( + T7 100 ) T3 ) )
(or ( <= ( + T3 95 )  ( + T7 100 ) ) ( <= ( + T7 101 )( + T3 78 ) ) )
(or ( <= ( + T3 103 )  ( + T7 101 ) ) ( <= ( + T7 182 )( + T3 95 ) ) )
(or ( <= ( + T3 150 )  ( + T7 182 ) ) ( <= ( + T7 183 )( + T3 103 ) ) )
(or ( <= ( + T3 200 )  ( + T7 183 ) ) ( <= ( + T7 184 )( + T3 150 ) ) )
(or ( <= ( + T3 300 )  ( + T7 184 ) ) ( <= ( + T7 268 )( + T3 200 ) ) )
(or ( <= ( + T3 351 )  ( + T7 268 ) ) ( <= ( + T7 335 )( + T3 300 ) ) )
(or ( <= ( + T3 418 )  ( + T7 335 ) ) ( <= ( + T7 358 )( + T3 351 ) ) )
(or ( <= ( + T3 78 ) T8 ) ( <= ( + T8 77 ) T3 ) )
(or ( <= ( + T3 95 )  ( + T8 77 ) ) ( <= ( + T8 166 )( + T3 78 ) ) )
(or ( <= ( + T3 103 )  ( + T8 166 ) ) ( <= ( + T8 259 )( + T3 95 ) ) )
(or ( <= ( + T3 150 )  ( + T8 259 ) ) ( <= ( + T8 294 )( + T3 103 ) ) )
(or ( <= ( + T3 200 )  ( + T8 294 ) ) ( <= ( + T8 373 )( + T3 150 ) ) )
(or ( <= ( + T3 300 )  ( + T8 373 ) ) ( <= ( + T8 458 )( + T3 200 ) ) )
(or ( <= ( + T3 351 )  ( + T8 458 ) ) ( <= ( + T8 471 )( + T3 300 ) ) )
(or ( <= ( + T3 418 )  ( + T8 471 ) ) ( <= ( + T8 544 )( + T3 351 ) ) )
(or ( <= ( + T3 78 ) T9 ) ( <= ( + T9 34 ) T3 ) )
(or ( <= ( + T3 95 )  ( + T9 34 ) ) ( <= ( + T9 99 )( + T3 78 ) ) )
(or ( <= ( + T3 103 )  ( + T9 99 ) ) ( <= ( + T9 171 )( + T3 95 ) ) )
(or ( <= ( + T3 150 )  ( + T9 171 ) ) ( <= ( + T9 177 )( + T3 103 ) ) )
(or ( <= ( + T3 200 )  ( + T9 177 ) ) ( <= ( + T9 255 )( + T3 150 ) ) )
(or ( <= ( + T3 300 )  ( + T9 255 ) ) ( <= ( + T9 277 )( + T3 200 ) ) )
(or ( <= ( + T3 351 )  ( + T9 277 ) ) ( <= ( + T9 328 )( + T3 300 ) ) )
(or ( <= ( + T3 418 )  ( + T9 328 ) ) ( <= ( + T9 347 )( + T3 351 ) ) )
(or ( <= ( + T3 78 ) T10 ) ( <= ( + T10 55 ) T3 ) )
(or ( <= ( + T3 95 )  ( + T10 55 ) ) ( <= ( + T10 91 )( + T3 78 ) ) )
(or ( <= ( + T3 103 )  ( + T10 91 ) ) ( <= ( + T10 148 )( + T3 95 ) ) )
(or ( <= ( + T3 150 )  ( + T10 148 ) ) ( <= ( + T10 161 )( + T3 103 ) ) )
(or ( <= ( + T3 200 )  ( + T10 161 ) ) ( <= ( + T10 232 )( + T3 150 ) ) )
(or ( <= ( + T3 300 )  ( + T10 232 ) ) ( <= ( + T10 282 )( + T3 200 ) ) )
(or ( <= ( + T3 351 )  ( + T10 282 ) ) ( <= ( + T10 329 )( + T3 300 ) ) )
(or ( <= ( + T3 418 )  ( + T10 329 ) ) ( <= ( + T10 399 )( + T3 351 ) ) )
(or ( <= ( + T4 71 ) T5 ) ( <= ( + T5 95 ) T4 ) )
(or ( <= ( + T4 165 )  ( + T5 95 ) ) ( <= ( + T5 144 )( + T4 71 ) ) )
(or ( <= ( + T4 236 )  ( + T5 144 ) ) ( <= ( + T5 197 )( + T4 165 ) ) )
(or ( <= ( + T4 255 )  ( + T5 197 ) ) ( <= ( + T5 244 )( + T4 236 ) ) )
(or ( <= ( + T4 313 )  ( + T5 244 ) ) ( <= ( + T5 317 )( + T4 255 ) ) )
(or ( <= ( + T4 404 )  ( + T5 317 ) ) ( <= ( + T5 379 )( + T4 313 ) ) )
(or ( <= ( + T4 445 )  ( + T5 379 ) ) ( <= ( + T5 478 )( + T4 404 ) ) )
(or ( <= ( + T4 472 )  ( + T5 478 ) ) ( <= ( + T5 572 )( + T4 445 ) ) )
(or ( <= ( + T4 71 ) T6 ) ( <= ( + T6 42 ) T4 ) )
(or ( <= ( + T4 165 )  ( + T6 42 ) ) ( <= ( + T6 124 )( + T4 71 ) ) )
(or ( <= ( + T4 236 )  ( + T6 124 ) ) ( <= ( + T6 158 )( + T4 165 ) ) )
(or ( <= ( + T4 255 )  ( + T6 158 ) ) ( <= ( + T6 245 )( + T4 236 ) ) )
(or ( <= ( + T4 313 )  ( + T6 245 ) ) ( <= ( + T6 303 )( + T4 255 ) ) )
(or ( <= ( + T4 404 )  ( + T6 303 ) ) ( <= ( + T6 387 )( + T4 313 ) ) )
(or ( <= ( + T4 445 )  ( + T6 387 ) ) ( <= ( + T6 481 )( + T4 404 ) ) )
(or ( <= ( + T4 472 )  ( + T6 481 ) ) ( <= ( + T6 516 )( + T4 445 ) ) )
(or ( <= ( + T4 71 ) T7 ) ( <= ( + T7 100 ) T4 ) )
(or ( <= ( + T4 165 )  ( + T7 100 ) ) ( <= ( + T7 101 )( + T4 71 ) ) )
(or ( <= ( + T4 236 )  ( + T7 101 ) ) ( <= ( + T7 182 )( + T4 165 ) ) )
(or ( <= ( + T4 255 )  ( + T7 182 ) ) ( <= ( + T7 183 )( + T4 236 ) ) )
(or ( <= ( + T4 313 )  ( + T7 183 ) ) ( <= ( + T7 184 )( + T4 255 ) ) )
(or ( <= ( + T4 404 )  ( + T7 184 ) ) ( <= ( + T7 268 )( + T4 313 ) ) )
(or ( <= ( + T4 445 )  ( + T7 268 ) ) ( <= ( + T7 335 )( + T4 404 ) ) )
(or ( <= ( + T4 472 )  ( + T7 335 ) ) ( <= ( + T7 358 )( + T4 445 ) ) )
(or ( <= ( + T4 71 ) T8 ) ( <= ( + T8 77 ) T4 ) )
(or ( <= ( + T4 165 )  ( + T8 77 ) ) ( <= ( + T8 166 )( + T4 71 ) ) )
(or ( <= ( + T4 236 )  ( + T8 166 ) ) ( <= ( + T8 259 )( + T4 165 ) ) )
(or ( <= ( + T4 255 )  ( + T8 259 ) ) ( <= ( + T8 294 )( + T4 236 ) ) )
(or ( <= ( + T4 313 )  ( + T8 294 ) ) ( <= ( + T8 373 )( + T4 255 ) ) )
(or ( <= ( + T4 404 )  ( + T8 373 ) ) ( <= ( + T8 458 )( + T4 313 ) ) )
(or ( <= ( + T4 445 )  ( + T8 458 ) ) ( <= ( + T8 471 )( + T4 404 ) ) )
(or ( <= ( + T4 472 )  ( + T8 471 ) ) ( <= ( + T8 544 )( + T4 445 ) ) )
(or ( <= ( + T4 71 ) T9 ) ( <= ( + T9 34 ) T4 ) )
(or ( <= ( + T4 165 )  ( + T9 34 ) ) ( <= ( + T9 99 )( + T4 71 ) ) )
(or ( <= ( + T4 236 )  ( + T9 99 ) ) ( <= ( + T9 171 )( + T4 165 ) ) )
(or ( <= ( + T4 255 )  ( + T9 171 ) ) ( <= ( + T9 177 )( + T4 236 ) ) )
(or ( <= ( + T4 313 )  ( + T9 177 ) ) ( <= ( + T9 255 )( + T4 255 ) ) )
(or ( <= ( + T4 404 )  ( + T9 255 ) ) ( <= ( + T9 277 )( + T4 313 ) ) )
(or ( <= ( + T4 445 )  ( + T9 277 ) ) ( <= ( + T9 328 )( + T4 404 ) ) )
(or ( <= ( + T4 472 )  ( + T9 328 ) ) ( <= ( + T9 347 )( + T4 445 ) ) )
(or ( <= ( + T4 71 ) T10 ) ( <= ( + T10 55 ) T4 ) )
(or ( <= ( + T4 165 )  ( + T10 55 ) ) ( <= ( + T10 91 )( + T4 71 ) ) )
(or ( <= ( + T4 236 )  ( + T10 91 ) ) ( <= ( + T10 148 )( + T4 165 ) ) )
(or ( <= ( + T4 255 )  ( + T10 148 ) ) ( <= ( + T10 161 )( + T4 236 ) ) )
(or ( <= ( + T4 313 )  ( + T10 161 ) ) ( <= ( + T10 232 )( + T4 255 ) ) )
(or ( <= ( + T4 404 )  ( + T10 232 ) ) ( <= ( + T10 282 )( + T4 313 ) ) )
(or ( <= ( + T4 445 )  ( + T10 282 ) ) ( <= ( + T10 329 )( + T4 404 ) ) )
(or ( <= ( + T4 472 )  ( + T10 329 ) ) ( <= ( + T10 399 )( + T4 445 ) ) )
(or ( <= ( + T5 95 ) T6 ) ( <= ( + T6 42 ) T5 ) )
(or ( <= ( + T5 144 )  ( + T6 42 ) ) ( <= ( + T6 124 )( + T5 95 ) ) )
(or ( <= ( + T5 197 )  ( + T6 124 ) ) ( <= ( + T6 158 )( + T5 144 ) ) )
(or ( <= ( + T5 244 )  ( + T6 158 ) ) ( <= ( + T6 245 )( + T5 197 ) ) )
(or ( <= ( + T5 317 )  ( + T6 245 ) ) ( <= ( + T6 303 )( + T5 244 ) ) )
(or ( <= ( + T5 379 )  ( + T6 303 ) ) ( <= ( + T6 387 )( + T5 317 ) ) )
(or ( <= ( + T5 478 )  ( + T6 387 ) ) ( <= ( + T6 481 )( + T5 379 ) ) )
(or ( <= ( + T5 572 )  ( + T6 481 ) ) ( <= ( + T6 516 )( + T5 478 ) ) )
(or ( <= ( + T5 95 ) T7 ) ( <= ( + T7 100 ) T5 ) )
(or ( <= ( + T5 144 )  ( + T7 100 ) ) ( <= ( + T7 101 )( + T5 95 ) ) )
(or ( <= ( + T5 197 )  ( + T7 101 ) ) ( <= ( + T7 182 )( + T5 144 ) ) )
(or ( <= ( + T5 244 )  ( + T7 182 ) ) ( <= ( + T7 183 )( + T5 197 ) ) )
(or ( <= ( + T5 317 )  ( + T7 183 ) ) ( <= ( + T7 184 )( + T5 244 ) ) )
(or ( <= ( + T5 379 )  ( + T7 184 ) ) ( <= ( + T7 268 )( + T5 317 ) ) )
(or ( <= ( + T5 478 )  ( + T7 268 ) ) ( <= ( + T7 335 )( + T5 379 ) ) )
(or ( <= ( + T5 572 )  ( + T7 335 ) ) ( <= ( + T7 358 )( + T5 478 ) ) )
(or ( <= ( + T5 95 ) T8 ) ( <= ( + T8 77 ) T5 ) )
(or ( <= ( + T5 144 )  ( + T8 77 ) ) ( <= ( + T8 166 )( + T5 95 ) ) )
(or ( <= ( + T5 197 )  ( + T8 166 ) ) ( <= ( + T8 259 )( + T5 144 ) ) )
(or ( <= ( + T5 244 )  ( + T8 259 ) ) ( <= ( + T8 294 )( + T5 197 ) ) )
(or ( <= ( + T5 317 )  ( + T8 294 ) ) ( <= ( + T8 373 )( + T5 244 ) ) )
(or ( <= ( + T5 379 )  ( + T8 373 ) ) ( <= ( + T8 458 )( + T5 317 ) ) )
(or ( <= ( + T5 478 )  ( + T8 458 ) ) ( <= ( + T8 471 )( + T5 379 ) ) )
(or ( <= ( + T5 572 )  ( + T8 471 ) ) ( <= ( + T8 544 )( + T5 478 ) ) )
(or ( <= ( + T5 95 ) T9 ) ( <= ( + T9 34 ) T5 ) )
(or ( <= ( + T5 144 )  ( + T9 34 ) ) ( <= ( + T9 99 )( + T5 95 ) ) )
(or ( <= ( + T5 197 )  ( + T9 99 ) ) ( <= ( + T9 171 )( + T5 144 ) ) )
(or ( <= ( + T5 244 )  ( + T9 171 ) ) ( <= ( + T9 177 )( + T5 197 ) ) )
(or ( <= ( + T5 317 )  ( + T9 177 ) ) ( <= ( + T9 255 )( + T5 244 ) ) )
(or ( <= ( + T5 379 )  ( + T9 255 ) ) ( <= ( + T9 277 )( + T5 317 ) ) )
(or ( <= ( + T5 478 )  ( + T9 277 ) ) ( <= ( + T9 328 )( + T5 379 ) ) )
(or ( <= ( + T5 572 )  ( + T9 328 ) ) ( <= ( + T9 347 )( + T5 478 ) ) )
(or ( <= ( + T5 95 ) T10 ) ( <= ( + T10 55 ) T5 ) )
(or ( <= ( + T5 144 )  ( + T10 55 ) ) ( <= ( + T10 91 )( + T5 95 ) ) )
(or ( <= ( + T5 197 )  ( + T10 91 ) ) ( <= ( + T10 148 )( + T5 144 ) ) )
(or ( <= ( + T5 244 )  ( + T10 148 ) ) ( <= ( + T10 161 )( + T5 197 ) ) )
(or ( <= ( + T5 317 )  ( + T10 161 ) ) ( <= ( + T10 232 )( + T5 244 ) ) )
(or ( <= ( + T5 379 )  ( + T10 232 ) ) ( <= ( + T10 282 )( + T5 317 ) ) )
(or ( <= ( + T5 478 )  ( + T10 282 ) ) ( <= ( + T10 329 )( + T5 379 ) ) )
(or ( <= ( + T5 572 )  ( + T10 329 ) ) ( <= ( + T10 399 )( + T5 478 ) ) )
(or ( <= ( + T6 42 ) T7 ) ( <= ( + T7 100 ) T6 ) )
(or ( <= ( + T6 124 )  ( + T7 100 ) ) ( <= ( + T7 101 )( + T6 42 ) ) )
(or ( <= ( + T6 158 )  ( + T7 101 ) ) ( <= ( + T7 182 )( + T6 124 ) ) )
(or ( <= ( + T6 245 )  ( + T7 182 ) ) ( <= ( + T7 183 )( + T6 158 ) ) )
(or ( <= ( + T6 303 )  ( + T7 183 ) ) ( <= ( + T7 184 )( + T6 245 ) ) )
(or ( <= ( + T6 387 )  ( + T7 184 ) ) ( <= ( + T7 268 )( + T6 303 ) ) )
(or ( <= ( + T6 481 )  ( + T7 268 ) ) ( <= ( + T7 335 )( + T6 387 ) ) )
(or ( <= ( + T6 516 )  ( + T7 335 ) ) ( <= ( + T7 358 )( + T6 481 ) ) )
(or ( <= ( + T6 42 ) T8 ) ( <= ( + T8 77 ) T6 ) )
(or ( <= ( + T6 124 )  ( + T8 77 ) ) ( <= ( + T8 166 )( + T6 42 ) ) )
(or ( <= ( + T6 158 )  ( + T8 166 ) ) ( <= ( + T8 259 )( + T6 124 ) ) )
(or ( <= ( + T6 245 )  ( + T8 259 ) ) ( <= ( + T8 294 )( + T6 158 ) ) )
(or ( <= ( + T6 303 )  ( + T8 294 ) ) ( <= ( + T8 373 )( + T6 245 ) ) )
(or ( <= ( + T6 387 )  ( + T8 373 ) ) ( <= ( + T8 458 )( + T6 303 ) ) )
(or ( <= ( + T6 481 )  ( + T8 458 ) ) ( <= ( + T8 471 )( + T6 387 ) ) )
(or ( <= ( + T6 516 )  ( + T8 471 ) ) ( <= ( + T8 544 )( + T6 481 ) ) )
(or ( <= ( + T6 42 ) T9 ) ( <= ( + T9 34 ) T6 ) )
(or ( <= ( + T6 124 )  ( + T9 34 ) ) ( <= ( + T9 99 )( + T6 42 ) ) )
(or ( <= ( + T6 158 )  ( + T9 99 ) ) ( <= ( + T9 171 )( + T6 124 ) ) )
(or ( <= ( + T6 245 )  ( + T9 171 ) ) ( <= ( + T9 177 )( + T6 158 ) ) )
(or ( <= ( + T6 303 )  ( + T9 177 ) ) ( <= ( + T9 255 )( + T6 245 ) ) )
(or ( <= ( + T6 387 )  ( + T9 255 ) ) ( <= ( + T9 277 )( + T6 303 ) ) )
(or ( <= ( + T6 481 )  ( + T9 277 ) ) ( <= ( + T9 328 )( + T6 387 ) ) )
(or ( <= ( + T6 516 )  ( + T9 328 ) ) ( <= ( + T9 347 )( + T6 481 ) ) )
(or ( <= ( + T6 42 ) T10 ) ( <= ( + T10 55 ) T6 ) )
(or ( <= ( + T6 124 )  ( + T10 55 ) ) ( <= ( + T10 91 )( + T6 42 ) ) )
(or ( <= ( + T6 158 )  ( + T10 91 ) ) ( <= ( + T10 148 )( + T6 124 ) ) )
(or ( <= ( + T6 245 )  ( + T10 148 ) ) ( <= ( + T10 161 )( + T6 158 ) ) )
(or ( <= ( + T6 303 )  ( + T10 161 ) ) ( <= ( + T10 232 )( + T6 245 ) ) )
(or ( <= ( + T6 387 )  ( + T10 232 ) ) ( <= ( + T10 282 )( + T6 303 ) ) )
(or ( <= ( + T6 481 )  ( + T10 282 ) ) ( <= ( + T10 329 )( + T6 387 ) ) )
(or ( <= ( + T6 516 )  ( + T10 329 ) ) ( <= ( + T10 399 )( + T6 481 ) ) )
(or ( <= ( + T7 100 ) T8 ) ( <= ( + T8 77 ) T7 ) )
(or ( <= ( + T7 101 )  ( + T8 77 ) ) ( <= ( + T8 166 )( + T7 100 ) ) )
(or ( <= ( + T7 182 )  ( + T8 166 ) ) ( <= ( + T8 259 )( + T7 101 ) ) )
(or ( <= ( + T7 183 )  ( + T8 259 ) ) ( <= ( + T8 294 )( + T7 182 ) ) )
(or ( <= ( + T7 184 )  ( + T8 294 ) ) ( <= ( + T8 373 )( + T7 183 ) ) )
(or ( <= ( + T7 268 )  ( + T8 373 ) ) ( <= ( + T8 458 )( + T7 184 ) ) )
(or ( <= ( + T7 335 )  ( + T8 458 ) ) ( <= ( + T8 471 )( + T7 268 ) ) )
(or ( <= ( + T7 358 )  ( + T8 471 ) ) ( <= ( + T8 544 )( + T7 335 ) ) )
(or ( <= ( + T7 100 ) T9 ) ( <= ( + T9 34 ) T7 ) )
(or ( <= ( + T7 101 )  ( + T9 34 ) ) ( <= ( + T9 99 )( + T7 100 ) ) )
(or ( <= ( + T7 182 )  ( + T9 99 ) ) ( <= ( + T9 171 )( + T7 101 ) ) )
(or ( <= ( + T7 183 )  ( + T9 171 ) ) ( <= ( + T9 177 )( + T7 182 ) ) )
(or ( <= ( + T7 184 )  ( + T9 177 ) ) ( <= ( + T9 255 )( + T7 183 ) ) )
(or ( <= ( + T7 268 )  ( + T9 255 ) ) ( <= ( + T9 277 )( + T7 184 ) ) )
(or ( <= ( + T7 335 )  ( + T9 277 ) ) ( <= ( + T9 328 )( + T7 268 ) ) )
(or ( <= ( + T7 358 )  ( + T9 328 ) ) ( <= ( + T9 347 )( + T7 335 ) ) )
(or ( <= ( + T7 100 ) T10 ) ( <= ( + T10 55 ) T7 ) )
(or ( <= ( + T7 101 )  ( + T10 55 ) ) ( <= ( + T10 91 )( + T7 100 ) ) )
(or ( <= ( + T7 182 )  ( + T10 91 ) ) ( <= ( + T10 148 )( + T7 101 ) ) )
(or ( <= ( + T7 183 )  ( + T10 148 ) ) ( <= ( + T10 161 )( + T7 182 ) ) )
(or ( <= ( + T7 184 )  ( + T10 161 ) ) ( <= ( + T10 232 )( + T7 183 ) ) )
(or ( <= ( + T7 268 )  ( + T10 232 ) ) ( <= ( + T10 282 )( + T7 184 ) ) )
(or ( <= ( + T7 335 )  ( + T10 282 ) ) ( <= ( + T10 329 )( + T7 268 ) ) )
(or ( <= ( + T7 358 )  ( + T10 329 ) ) ( <= ( + T10 399 )( + T7 335 ) ) )
(or ( <= ( + T8 77 ) T9 ) ( <= ( + T9 34 ) T8 ) )
(or ( <= ( + T8 166 )  ( + T9 34 ) ) ( <= ( + T9 99 )( + T8 77 ) ) )
(or ( <= ( + T8 259 )  ( + T9 99 ) ) ( <= ( + T9 171 )( + T8 166 ) ) )
(or ( <= ( + T8 294 )  ( + T9 171 ) ) ( <= ( + T9 177 )( + T8 259 ) ) )
(or ( <= ( + T8 373 )  ( + T9 177 ) ) ( <= ( + T9 255 )( + T8 294 ) ) )
(or ( <= ( + T8 458 )  ( + T9 255 ) ) ( <= ( + T9 277 )( + T8 373 ) ) )
(or ( <= ( + T8 471 )  ( + T9 277 ) ) ( <= ( + T9 328 )( + T8 458 ) ) )
(or ( <= ( + T8 544 )  ( + T9 328 ) ) ( <= ( + T9 347 )( + T8 471 ) ) )
(or ( <= ( + T8 77 ) T10 ) ( <= ( + T10 55 ) T8 ) )
(or ( <= ( + T8 166 )  ( + T10 55 ) ) ( <= ( + T10 91 )( + T8 77 ) ) )
(or ( <= ( + T8 259 )  ( + T10 91 ) ) ( <= ( + T10 148 )( + T8 166 ) ) )
(or ( <= ( + T8 294 )  ( + T10 148 ) ) ( <= ( + T10 161 )( + T8 259 ) ) )
(or ( <= ( + T8 373 )  ( + T10 161 ) ) ( <= ( + T10 232 )( + T8 294 ) ) )
(or ( <= ( + T8 458 )  ( + T10 232 ) ) ( <= ( + T10 282 )( + T8 373 ) ) )
(or ( <= ( + T8 471 )  ( + T10 282 ) ) ( <= ( + T10 329 )( + T8 458 ) ) )
(or ( <= ( + T8 544 )  ( + T10 329 ) ) ( <= ( + T10 399 )( + T8 471 ) ) )
(or ( <= ( + T9 34 ) T10 ) ( <= ( + T10 55 ) T9 ) )
(or ( <= ( + T9 99 )  ( + T10 55 ) ) ( <= ( + T10 91 )( + T9 34 ) ) )
(or ( <= ( + T9 171 )  ( + T10 91 ) ) ( <= ( + T10 148 )( + T9 99 ) ) )
(or ( <= ( + T9 177 )  ( + T10 148 ) ) ( <= ( + T10 161 )( + T9 171 ) ) )
(or ( <= ( + T9 255 )  ( + T10 161 ) ) ( <= ( + T10 232 )( + T9 177 ) ) )
(or ( <= ( + T9 277 )  ( + T10 232 ) ) ( <= ( + T10 282 )( + T9 255 ) ) )
(or ( <= ( + T9 328 )  ( + T10 282 ) ) ( <= ( + T10 329 )( + T9 277 ) ) )
(or ( <= ( + T9 347 )  ( + T10 329 ) ) ( <= ( + T10 399 )( + T9 328 ) ) )
( <= ( + T1 290 ) Z)
( <= ( + T2 396 ) Z)
( <= ( + T3 418 ) Z)
( <= ( + T4 472 ) Z)
( <= ( + T5 572 ) Z)
( <= ( + T6 516 ) Z)
( <= ( + T7 358 ) Z)
( <= ( + T8 544 ) Z)
( <= ( + T9 347 ) Z)
( <= ( + T10 399 ) Z)
( >= T1 0 )
( >= T2 0 )
( >= T3 0 )
( >= T4 0 )
( >= T5 0 )
( >= T6 0 )
( >= T7 0 )
( >= T8 0 )
( >= T9 0 )
( >= T10 0 )
) )
)(=> $phi $goal))))